
Gurobi 11.0.3 (linux64) logging started Mon Aug 25 13:40:20 2025

Set parameter LogFile to value "/home/yihong/Coding/OR_SUC/SUC_epstheta_results_bigM100000_thread4/case24_ieee_rts_theta0.1_epsilon0.1_gurobi_seed150000_num_gen100_N_WDR50_load_scaling_factor1_ori_eps_T5quadra_cost_bc1.03.txt"
Set parameter TimeLimit to value 3600
Gurobi Optimizer version 11.0.3 build v11.0.3rc0 (linux64 - "Ubuntu 20.04.6 LTS")

CPU model: AMD EPYC 7532 32-Core Processor, instruction set [SSE2|AVX|AVX2]
Thread count: 64 physical cores, 128 logical processors, using up to 4 threads

Academic license 2399124 - for non-commercial use only - registered to yi___@ed.ac.uk
Optimize a model with 11547 rows, 6251 columns and 272622 nonzeros
Model fingerprint: 0x098b702d
Model has 500 quadratic constraints
Variable types: 5751 continuous, 500 integer (500 binary)
Coefficient statistics:
  Matrix range     [3e-04, 2e+03]
  QMatrix range    [2e-03, 8e-03]
  QLMatrix range   [1e-01, 6e+01]
  Objective range  [1e+00, 1e+00]
  Bounds range     [1e+00, 1e+00]
  RHS range        [1e+00, 9e+03]
Presolve removed 9659 rows and 2841 columns
Presolve time: 0.08s
Presolved: 1888 rows, 3410 columns, 11732 nonzeros
Presolved model has 500 quadratic constraint(s)
Variable types: 2910 continuous, 500 integer (500 binary)

Root relaxation: objective 6.244122e+03, 1492 iterations, 0.02 seconds (0.02 work units)

    Nodes    |    Current Node    |     Objective Bounds      |     Work
 Expl Unexpl |  Obj  Depth IntInf | Incumbent    BestBd   Gap | It/Node Time

     0     0 6244.12175    0    -          - 6244.12175      -     -    0s
     0     0 23431.6282    0  241          - 23431.6282      -     -    0s
     0     0 97180.0015    0  101          - 97180.0015      -     -    0s
     0     0 97183.9513    0  101          - 97183.9513      -     -    0s
     0     0 97268.8334    0   61          - 97268.8334      -     -    0s
     0     0 97269.0236    0   61          - 97269.0236      -     -    0s
     0     0 97269.0863    0   56          - 97269.0863      -     -    0s
     0     0 97269.3401    0   56          - 97269.3401      -     -    0s
     0     2 97269.3401    0   56          - 97269.3401      -     -    0s
H  129   143                    97329.474205 97273.9295  0.06%   7.0    0s
*  129   143              38    97329.474205 97273.9295  0.06%   7.0    0s

Cutting planes:
  Gomory: 92
  Implied bound: 164
  MIR: 44
  Flow cover: 104
  RLT: 53

Explored 150 nodes (5378 simplex iterations) in 0.96 seconds (0.87 work units)
Thread count was 4 (of 128 available processors)

Solution count 2: 97329.5 97329.5 

Optimal solution found (tolerance 1.00e-03)
Warning: max constraint violation (1.1914e-07) exceeds tolerance
Best objective 9.732947420434e+04, best bound 9.727392951158e+04, gap 0.0571%

Gurobi 11.0.3 (linux64) logging started Mon Aug 25 13:40:22 2025

Set parameter LogFile to value "/home/yihong/Coding/OR_SUC/SUC_epstheta_results_bigM100000_thread4/case24_ieee_rts_theta0.1_epsilon0.1_gurobi_seed150000_num_gen100_N_WDR50_load_scaling_factor1_ori_eps_T5quadra_cost_bc1.03.txt"
Set parameter TimeLimit to value 3600
Gurobi Optimizer version 11.0.3 build v11.0.3rc0 (linux64 - "Ubuntu 20.04.6 LTS")

CPU model: AMD EPYC 7532 32-Core Processor, instruction set [SSE2|AVX|AVX2]
Thread count: 64 physical cores, 128 logical processors, using up to 4 threads

Academic license 2399124 - for non-commercial use only - registered to yi___@ed.ac.uk
Optimize a model with 28707 rows, 6252 columns and 2129551 nonzeros
Model fingerprint: 0x0c46ef87
Model has 501 quadratic constraints
Variable types: 5752 continuous, 500 integer (500 binary)
Coefficient statistics:
  Matrix range     [3e-04, 2e+03]
  QMatrix range    [2e-03, 5e+01]
  QLMatrix range   [1e-01, 6e+01]
  Objective range  [1e+00, 1e+00]
  Bounds range     [1e-01, 1e+00]
  RHS range        [1e-02, 1e+05]
  QRHS range       [5e+00, 5e+00]
Presolve removed 8575 rows and 2348 columns
Presolve time: 2.01s
Presolved: 20634 rows, 4405 columns, 431268 nonzeros
Presolved model has 500 quadratic constraint(s)
Presolved model has 1 bilinear constraint(s)
Warning: Model contains variables with very large bounds participating
         in product terms.
         Presolve was not able to compute smaller bounds for these variables.
         Consider bounding these variables or reformulating the model.


Solving non-convex MIQCP

Variable types: 3901 continuous, 504 integer (504 binary)

Root relaxation: objective 0.000000e+00, 2676 iterations, 0.52 seconds (1.39 work units)

    Nodes    |    Current Node    |     Objective Bounds      |     Work
 Expl Unexpl |  Obj  Depth IntInf | Incumbent    BestBd   Gap | It/Node Time

     0     0    0.00000    0    1          -    0.00000      -     -    4s
H    0     0                       0.0162528    0.00000   100%     -  743s
H    0     0                       0.0138529    0.00000   100%     -  743s
H    0     0                       0.0135920    0.00000   100%     -  743s
H    0     0                       0.0117781    0.00000   100%     -  743s
     0     0    0.01169    0    7    0.01178    0.01169  0.73%     -  744s
     0     0    0.01169    0    7    0.01178    0.01169  0.73%     -  744s
     0     0    0.01169    0    7    0.01178    0.01169  0.73%     -  744s
     0     0    0.01169    0    6    0.01178    0.01169  0.73%     -  745s
     0     0    0.01169    0    6    0.01178    0.01169  0.73%     -  745s
     0     0    0.01169    0    6    0.01178    0.01169  0.73%     -  745s
     0     0    0.01169    0    6    0.01178    0.01169  0.73%     -  745s
     0     0    0.01169    0    6    0.01178    0.01169  0.73%     -  745s
     0     0    0.01169    0    6    0.01178    0.01169  0.73%     -  746s
     0     0    0.01169    0    6    0.01178    0.01169  0.73%     -  746s
     0     0    0.01169    0    6    0.01178    0.01169  0.73%     -  746s
H    0     0                       0.0116942    0.01169  0.02%     -  746s

Cutting planes:
  Implied bound: 6
  Flow cover: 1
  RLT: 3
  Relax-and-lift: 2

Explored 1 nodes (4723 simplex iterations) in 747.01 seconds (338.24 work units)
Thread count was 4 (of 128 available processors)

Solution count 5: 0.0116942 0.0117781 0.013592 ... 0.0162528

Optimal solution found (tolerance 1.00e-03)
Best objective 1.169415789591e-02, best bound 1.169228659776e-02, gap 0.0160%
